p tw 84 212
0 1
0 2
0 23
0 54
0 61
1 2
1 22
1 60
2 59
2 68
2 69
2 80
3 4
3 5
3 29
3 45
3 46
3 47
4 5
4 21
4 56
5 67
5 83
6 7
6 8
6 9
6 10
6 14
6 15
7 8
7 9
7 10
7 13
7 70
7 71
7 82
8 9
8 10
8 11
8 19
8 57
9 10
9 12
9 20
10 18
10 43
10 75
10 76
11 12
11 13
11 19
11 57
12 13
12 20
13 70
13 71
13 82
14 15
14 65
14 71
15 70
16 17
16 18
16 64
16 65
17 18
17 81
18 43
18 75
18 76
19 20
19 21
19 57
20 21
21 56
22 23
22 24
22 60
23 24
23 54
23 61
24 42
24 73
25 26
25 27
25 28
25 79
26 27
26 28
26 36
27 28
27 37
27 74
28 38
28 50
28 51
29 30
29 31
29 45
29 46
29 47
30 31
30 52
30 53
31 66
32 33
32 34
32 35
32 49
32 55
33 34
33 35
33 48
34 35
34 57
35 39
35 40
35 41
36 37
36 38
37 38
37 74
38 50
38 51
39 40
39 41
39 49
40 41
40 72
41 48
41 55
42 43
42 44
42 73
43 44
43 75
43 76
44 77
44 78
45 46
45 47
45 52
45 66
45 67
45 68
46 47
46 56
46 72
46 83
47 58
47 59
47 60
47 61
48 55
49 55
50 51
50 54
51 74
52 53
52 66
52 67
52 68
53 63
53 80
54 61
56 72
56 83
58 59
58 60
58 61
58 62
58 63
59 60
59 61
59 68
59 69
59 80
60 61
62 63
62 69
63 80
64 65
64 75
64 77
64 81
64 82
65 71
66 67
66 68
67 68
67 83
68 69
68 80
69 80
70 71
70 82
71 82
72 83
73 76
73 78
73 79
75 76
75 77
75 81
75 82
76 78
76 79
77 78
77 81
77 82
78 79
81 82
